/*********************************************
 * OPL 12.6.0.0 Data
 * Author: Adrian Rodriguez Bazaga, Pau Rodriguez Esmerats
 * Creation Date: 09/12/2017 at 00:42:31
 *********************************************/

maxConsec=8;
maxPresence=8;
maxHours=6;
minHours=4;
hours=12;
demand= [14 15 16 15 16 14 13 9 2 0 0 0  ];
nNurses=21;
